objective value:                                  -18
t_n_6                                               1 	(obj:-1)
t_n_216                                             1 	(obj:-1)
t_n_278                                             1 	(obj:-1)
t_n_332                                             1 	(obj:-1)
t_n_357                                             1 	(obj:-1)
t_n_420                                             1 	(obj:-1)
t_n_482                                             1 	(obj:-1)
t_n_616                                             1 	(obj:-1)
t_n_634                                             1 	(obj:-1)
t_n_638                                             1 	(obj:-1)
t_n_639                                             1 	(obj:-1)
t_n_740                                             1 	(obj:-1)
t_n_749                                             1 	(obj:-1)
t_n_824                                             1 	(obj:-1)
t_n_854                                             1 	(obj:-1)
t_n_870                                             1 	(obj:-1)
t_n_954                                             1 	(obj:-1)
t_n_983                                             1 	(obj:-1)
